Solver command line: ['C:\\Users\\jovelasc\\COIN-OR\\ipopt.exe', 'C:\\Users\\jovelasc\\AppData\\Local\\Temp\\tmpitrze265.pyomo.nl', '-AMPL']

Ipopt 3.12.13: 

******************************************************************************
This program contains Ipopt, a library for large-scale nonlinear optimization.
 Ipopt is released as open source code under the Eclipse Public License (EPL).
         For more information visit http://projects.coin-or.org/Ipopt
******************************************************************************

This is Ipopt version 3.12.13, running with linear solver mumps.
NOTE: Other linear solvers might be more efficient (see Ipopt documentation).

Number of nonzeros in equality constraint Jacobian...:        0
Number of nonzeros in inequality constraint Jacobian.:        5
Number of nonzeros in Lagrangian Hessian.............:        0

Total number of variables............................:        2
                     variables with only lower bounds:        2
                variables with lower and upper bounds:        0
                     variables with only upper bounds:        0
Total number of equality constraints.................:        0
Total number of inequality constraints...............:        3
        inequality constraints with only lower bounds:        0
   inequality constraints with lower and upper bounds:        0
        inequality constraints with only upper bounds:        3

iter    objective    inf_pr   inf_du lg(mu)  ||d||  lg(rg) alpha_du alpha_pr  ls
   0 -6.9999930e-01 0.00e+00 1.17e+01  -1.0 0.00e+00    -  0.00e+00 0.00e+00   0
   1 -3.2668771e+01 0.00e+00 4.00e+01  -1.0 1.40e+00    -  2.42e-02 1.00e+00f  1
   2 -1.6739058e+03 0.00e+00 3.69e+01  -1.0 8.44e+02    -  1.26e-03 9.57e-02f  1
   3 -2.1025963e+03 0.00e+00 3.41e+01  -1.0 1.95e+02    -  1.58e-02 7.45e-02f  1
   4 -2.1992231e+03 0.00e+00 3.27e+01  -1.0 7.59e+01    -  6.60e-02 4.25e-02f  1
   5 -2.2526956e+03 0.00e+00 2.91e+01  -1.0 4.82e+01    -  6.32e-04 1.10e-01f  1
   6 -2.5965034e+03 0.00e+00 2.74e+01  -1.0 5.76e+02    -  4.57e-02 5.96e-02f  1
   7 -2.5999164e+03 0.00e+00 2.45e+01  -1.0 3.30e+00    -  1.00e+00 1.05e-01f  1
   8 -2.5998000e+03 0.00e+00 1.00e-06  -1.0 5.11e-03    -  1.00e+00 1.00e+00f  1
   9 -2.5999944e+03 0.00e+00 2.83e-08  -2.5 9.72e-03    -  1.00e+00 1.00e+00f  1
iter    objective    inf_pr   inf_du lg(mu)  ||d||  lg(rg) alpha_du alpha_pr  ls
  10 -2.5999997e+03 0.00e+00 1.50e-09  -3.8 2.66e-04    -  1.00e+00 1.00e+00f  1
  11 -2.6000000e+03 0.00e+00 1.85e-11  -5.7 1.49e-05    -  1.00e+00 1.00e+00f  1
  12 -2.6000000e+03 0.00e+00 2.78e-14  -8.6 1.84e-07    -  1.00e+00 1.00e+00f  1

Number of Iterations....: 12

                                   (scaled)                 (unscaled)
Objective...............:  -2.6000000259949879e+03   -2.6000000259949879e+03
Dual infeasibility......:   2.7778601068099499e-14    2.7778601068099499e-14
Constraint violation....:   0.0000000000000000e+00    0.0000000000000000e+00
Complementarity.........:   2.5059421204891839e-09    2.5059421204891839e-09
Overall NLP error.......:   2.5059421204891839e-09    2.5059421204891839e-09


Number of objective function evaluations             = 13
Number of objective gradient evaluations             = 13
Number of equality constraint evaluations            = 0
Number of inequality constraint evaluations          = 13
Number of equality constraint Jacobian evaluations   = 0
Number of inequality constraint Jacobian evaluations = 13
Number of Lagrangian Hessian evaluations             = 12
Total CPU secs in IPOPT (w/o function evaluations)   =      0.017
Total CPU secs in NLP function evaluations           =      0.000

EXIT: Optimal Solution Found.

